1276817
66,78,29,5,94,31,60,84,42,43,19,62,82,2,24,15,106,93,80,1,50,83,58,45,28,51,33,44,4,0,34,97,100,81,89,108,23,22,14,21,63,9,65,76,8,36,25,40,37,71,56,74,85,26,68,69,7,39,67,12,92,41,107,77,32,105,54,59,64,11,35,27,13,38,30,48,10,90,88,96,46,70,6,87,49,17,75,72,18,61,95,86,98,104,53,103,57,101,99,52,16,79,20,47,73,55,102,91,3
